# Random Circle Problem
param d := 0.05; 
param n := 10; 
param radius := 2.00; 
param v0 := 
1 5.70
2 5.57
3 5.75
4 5.83
5 5.59
6 5.52
7 5.18
8 5.55
9 5.06
10 4.88
;
param cap := 
1 3.61757
2 4.09403
3 4.40778
4 5.00523
5 5.59993
6 5.83347
7 1.01540
8 1.17833
9 1.94778
10 2.10273
;
param x0 := 
1 2.00
2 1.62
3 0.62
4 -0.62
5 -1.62
6 -2.00
7 -1.62
8 -0.62
9 0.62
10 1.62
;
param y0 := 
1 -0.00
2 1.18
3 1.90
4 1.90
5 1.18
6 0.00
7 -1.18
8 -1.90
9 -1.90
10 -1.18
;
